p edge 500 216
e 107 495 1.000000
e 6 495 1.000000
e 6 107 1.000000
e 267 377 1.000000
e 19 267 1.000000
e 19 377 1.000000
e 81 468 1.000000
e 81 123 1.000000
e 123 468 1.000000
e 9 29 1.000000
e 9 451 1.000000
e 29 451 1.000000
e 349 413 1.000000
e 76 413 1.000000
e 76 349 1.000000
e 356 439 1.000000
e 189 439 1.000000
e 189 356 1.000000
e 123 174 1.000000
e 60 123 1.000000
e 60 174 1.000000
e 239 363 1.000000
e 183 239 1.000000
e 183 363 1.000000
e 144 201 1.000000
e 135 144 1.000000
e 135 201 1.000000
e 177 479 1.000000
e 118 177 1.000000
e 118 479 1.000000
e 440 448 1.000000
e 106 440 1.000000
e 106 448 1.000000
e 182 409 1.000000
e 161 182 1.000000
e 161 409 1.000000
e 115 157 1.000000
e 115 474 1.000000
e 157 474 1.000000
e 262 373 1.000000
e 216 373 1.000000
e 216 262 1.000000
e 119 296 1.000000
e 119 234 1.000000
e 234 296 1.000000
e 215 431 1.000000
e 215 251 1.000000
e 251 431 1.000000
e 41 237 1.000000
e 41 290 1.000000
e 237 290 1.000000
e 185 410 1.000000
e 185 225 1.000000
e 225 410 1.000000
e 292 477 1.000000
e 162 292 1.000000
e 162 477 1.000000
e 331 356 1.000000
e 231 356 1.000000
e 231 331 1.000000
e 208 398 1.000000
e 208 443 1.000000
e 398 443 1.000000
e 34 415 1.000000
e 34 252 1.000000
e 252 415 1.000000
e 484 492 1.000000
e 430 492 1.000000
e 430 484 1.000000
e 10 101 1.000000
e 10 72 1.000000
e 72 101 1.000000
e 274 315 1.000000
e 89 274 1.000000
e 89 315 1.000000
e 402 481 1.000000
e 354 481 1.000000
e 354 402 1.000000
e 369 433 1.000000
e 9 433 1.000000
e 9 369 1.000000
e 147 272 1.000000
e 147 254 1.000000
e 254 272 1.000000
e 78 455 1.000000
e 78 439 1.000000
e 439 455 1.000000
e 52 457 1.000000
e 52 60 1.000000
e 60 457 1.000000
e 25 203 1.000000
e 25 38 1.000000
e 38 203 1.000000
e 240 372 1.000000
e 240 431 1.000000
e 372 431 1.000000
e 285 472 1.000000
e 152 472 1.000000
e 152 285 1.000000
e 206 473 1.000000
e 206 258 1.000000
e 258 473 1.000000
e 119 279 1.000000
e 92 119 1.000000
e 92 279 1.000000
e 257 486 1.000000
e 182 486 1.000000
e 182 257 1.000000
e 41 121 1.000000
e 41 159 1.000000
e 121 159 1.000000
e 160 423 1.000000
e 85 160 1.000000
e 85 423 1.000000
e 163 321 1.000000
e 163 199 1.000000
e 199 321 1.000000
e 244 464 1.000000
e 173 464 1.000000
e 173 244 1.000000
e 227 446 1.000000
e 227 401 1.000000
e 401 446 1.000000
e 38 388 1.000000
e 38 465 1.000000
e 388 465 1.000000
e 408 429 1.000000
e 140 429 1.000000
e 140 408 1.000000
e 73 243 1.000000
e 60 243 1.000000
e 60 73 1.000000
e 253 347 1.000000
e 200 347 1.000000
e 200 253 1.000000
e 193 431 1.000000
e 8 193 1.000000
e 8 431 1.000000
e 134 476 1.000000
e 134 496 1.000000
e 476 496 1.000000
e 48 380 1.000000
e 48 148 1.000000
e 148 380 1.000000
e 33 231 1.000000
e 22 33 1.000000
e 22 231 1.000000
e 458 484 1.000000
e 31 458 1.000000
e 31 484 1.000000
e 131 422 1.000000
e 82 131 1.000000
e 82 422 1.000000
e 256 290 1.000000
e 247 256 1.000000
e 247 290 1.000000
e 447 500 1.000000
e 256 447 1.000000
e 256 500 1.000000
e 23 257 1.000000
e 23 32 1.000000
e 32 257 1.000000
e 243 432 1.000000
e 42 243 1.000000
e 42 432 1.000000
e 292 492 1.000000
e 237 292 1.000000
e 237 492 1.000000
e 119 399 1.000000
e 119 387 1.000000
e 387 399 1.000000
e 304 355 1.000000
e 230 304 1.000000
e 230 355 1.000000
e 131 370 1.000000
e 131 348 1.000000
e 348 370 1.000000
e 44 313 1.000000
e 5 44 1.000000
e 5 313 1.000000
e 29 171 1.000000
e 29 386 1.000000
e 171 386 1.000000
e 333 428 1.000000
e 195 333 1.000000
e 195 428 1.000000
e 178 223 1.000000
e 29 223 1.000000
e 29 178 1.000000
e 317 479 1.000000
e 317 362 1.000000
e 362 479 1.000000
e 155 305 1.000000
e 155 229 1.000000
e 229 305 1.000000
e 160 281 1.000000
e 160 421 1.000000
e 281 421 1.000000
e 16 410 1.000000
e 16 221 1.000000
e 221 410 1.000000
e 446 458 1.000000
e 198 458 1.000000
e 198 446 1.000000
e 8 458 1.000000
e 8 343 1.000000
e 343 458 1.000000
e 179 469 1.000000
e 179 316 1.000000
e 316 469 1.000000
e 199 466 1.000000
e 199 266 1.000000
e 266 466 1.000000
e 2 74 1.000000
e 2 129 1.000000
e 74 129 1.000000
